
 102   30
  10   10   10   10   10   10   10   10   10   10   10   10   10   10   10   10   10   10   10   10   10   10   10   10   10   10   10   10   10   10

   0   0   0   0   0   0   0   0   0   0   0   0   0   0   0   0   0   0   0   0   0   0   0   0   0   0   0   0   0   0   0  25 2 3 4 5 6 7 8 9 10 11 12 13 14 15 16 17 18 19 20 21 22 26 28 32 39 
  10   0   1   0   1   0   0   0   0   0   0   1   0   0   0   0   0   0   0   0   1   0   0   0   0   0   0   0   0   0   0  17 101 99 68 65 64 58 52 48 47 46 45 44 43 38 37 33 27 
   2   0   0   0   0   0   0   0   0   0   1   0   0   0   0   0   0   0   0   0   0   0   0   0   0   0   0   0   0   2   0  18 101 99 96 76 70 68 66 61 59 54 53 50 48 47 46 44 40 25 
   2   0   0   0   0   0   0   0   0   0   0   0   0   2   1   4   0   0   0   0   0   0   0   0   0   0   0   0   0   0   0  17 101 100 99 98 71 65 64 62 60 55 54 53 49 47 46 38 23 
   4   0   4   0   0   0   0   0   0   0   0   0   0   0   0   0   0   0   0   1   8   0   0   0   2   0   0   0   1   0   0  16 101 98 68 67 62 61 60 57 52 47 46 45 43 38 35 30 
   8   0   0   0   0   0   0   0   0   3   8   0   0   0   0   7   1   0   2   6   0   0   0   0   0   0   0   0   0   0   0  15 96 93 77 66 60 58 52 51 46 40 38 37 36 34 29 
   5   0   0   0   0   4   0   0   0   0   0   0   1   0   0   0   0   1   0   0   0   0   0   0   0   1   0   0   3   0   2  14 101 100 71 67 66 64 57 55 53 52 51 46 34 23 
   6   0   0   0   0   0   0   0   0   0   0   0   0   0   0   0   0   0   7   0   0   0   0   1   0   0   0   0   9   6   0  12 100 64 63 60 52 50 46 45 42 41 30 29 
   7   0   0   0   4   0   0   0   0   0   0   0   7   0   0   0   8   0   0   0   0   2   1   0   5   0   0   0   0   0   0  11 66 64 54 50 49 48 47 44 41 35 24 
   5   0   0   0   0   6   0   0   0   0   0   0   7   0   0   4   0   0   0   0   7   0   0   0   0   7   0   0   7   0   0  19 101 100 99 98 97 95 77 76 74 70 66 64 61 50 47 46 45 40 35 
   4   0   0   0   0   0   0   0   0   0   0   0   0   0   0   0   0   3   0   0   0   0   0   0   0   6   1   0   0   0   0  10 101 100 77 76 68 51 45 40 34 31 
   9   3   7   0   0   0   0   2   0   0   0   7   0   0   0   0   0   0   5   0   0   0   0   0   5   0   0   0   7   6   6  15 101 99 96 95 76 74 70 64 62 53 48 47 46 45 40 
   1   0   0   0   0   9   0   0   0   0   0   0   0   0   0   0   0   0   0   0  10   0   0   0   0   0   0   0   6   0   0  14 101 100 98 90 70 66 64 62 55 50 46 44 41 31 
   8   0   0   0   0   0   0   0   1   4   0   0   0   0   0   0   0   0   0   0   7   0   0   0   0   0   6   0   0   0   0  15 100 98 96 93 92 91 86 74 71 68 67 66 57 46 34 
   1   0   0   3   0   0   0   3   0   0   0   0   0   0   0  10   6   0   0   0   0   0   0   3   0   0   0   0   6   0   0  13 100 99 98 96 77 75 74 67 53 52 49 46 45 
   8   0   0   3   0   0   0   5   0   0   0   0   0   0   0   0   0   0   0   0   0   0   0   0   0   6   0   0   0   0   0  12 101 98 96 92 77 74 70 64 57 47 46 34 
   7   0   0   0   0   0   0   0   0   0   3   0   0   0   0   7   8   0   0   0   0   0   0   0   0   0   0   0   0   0   0  21 101 99 98 97 96 94 92 91 89 88 87 74 73 71 70 67 63 60 53 47 44 
   6   0   0   0   0   0   0   0   0   0   0   0   0   0   0   0   0   0   0   6   0   0   0   0   0   0   0   0   0   0   0  14 97 96 95 94 93 76 70 60 57 50 47 46 45 43 
   5   0   0   0   0   0   0   0   6   0   0   0   0   0   0   0   0   0   0   4   0   0   0   0   0   0   0   0   0   0   0  17 99 93 92 90 88 86 85 76 70 68 66 65 64 59 55 50 46 
  10   0   0   0   0   0   0   0   0   4   0   0   0   0   0   0   4   0   0   0   0   0   0   0   0   6   0   0   0   0   0  10 99 98 95 94 91 66 60 46 43 35 
   6   6   0   0   0   0   0   0   0   0   0   9   0   0   0   0   0   8   0   0   3   5   6   0   0   0   0   0   0   0   7  17 101 95 93 92 91 90 89 76 75 71 67 66 64 63 59 50 44 
   2   0   0   0   0   0   0   0   0   0   0   0   0   0   0   0   0   0   5   0   0   0   0   0   7   0   0   0   0   0   0  11 101 97 93 90 75 74 68 59 52 44 38 
   6   0   0   0   0   0   0   0   0   0   0   0   0   0   0   0   0   0   6   0   0   0   0   0   0   0   0   0  10   0   0  12 95 94 93 92 91 85 70 68 63 50 45 41 
   4   0   0   0   0   0   1   0   0   0   0   0   0   0   0   0   0   0   0   0   0   0   0   0   0   0   0   4   0  10   0  16 100 98 97 94 93 91 90 89 86 73 70 60 59 57 56 43 
   5   0   0   0   0   0   8   0   0   0   0   6   6   0   0   0   7   6   0   0   0   0   0   0   0   9   9   0   0   0   0  14 100 98 97 94 91 90 89 77 75 74 73 60 56 42 
   7   0   0   0   0   0   0   0   0   0   8   0   0   0   0   7   0  10   0   0   0   0   0   0   7   0   0   0   0   0   0  12 99 95 93 92 81 75 74 73 62 52 51 44 
   8   0   0   5   0   9   0   0   0   0   0   4   0   0   0   0   0   0   0   0   0   0   0   0   0   0   0   7   3   6   0  15 95 92 91 90 89 87 77 75 71 67 66 60 56 53 50 
   8   0   0   0   0   0   7   0   0   0   0   0   4   0   0   0   0   0   2   0   0   6   0   0   0   0   0   0   0   0   0  15 100 98 92 90 88 83 75 74 73 70 64 63 59 56 55 
   1   0   0   0   0   0   0   0   0   5   0   0   0   0   0   0   0   0   0   0   0   0   0   0   0   0   0  10   0   0   0  15 99 98 92 91 90 89 88 85 83 76 75 73 67 59 56 
   3   0   0   0   0   5   0   6   0   0   0   0   0   0   0   0   0   0   0   8   0   0   0   0   0   0   0   0   0   0   0  15 99 97 96 95 94 93 90 88 87 85 81 73 70 66 56 
   2   0   0   0   7   0   0   0   0   0   0   0   0   0   6   0   0   0   0   0   0   0   0   9   0   0   0   0   6   0   0  11 99 93 92 91 89 88 75 74 73 71 47 
   7   0   6   7   0   0   0   0   0   0   0   7   0   0   0   0   0  10   0   0   0   0   0   0   0   8   0   0  10   0   0  10 96 94 93 91 81 76 75 74 63 46 
   7   0   0   0   0   0   0   0   0   0   0   0   0   0   0   0   0   0   0   0   0   0   0   0   0   0   0   0   0   0   0  13 96 92 89 87 86 83 82 80 75 74 73 71 57 
   5   6   0  10   0   0   0   0   0   5   0   0   0   0   0   0   0   0   0   0   0   0   0   0   0   0   0   0   0   5   0   9 97 95 94 90 88 75 59 56 50 
   8   0   0   0   0   0   0   0   0   0   0   0   0   0   0   0   0   0   0   0   0   0   0   3   5   0   0   0   0   0   0  14 96 93 92 90 88 86 85 84 83 80 73 71 69 59 
   6   0   0   0   0   0   0   0   0   0   0   0   0   0   0   0   0   0   0   0   0   0   0   0   0   4   0   0   5   0   0  11 91 90 89 88 85 82 74 71 69 63 59 
   1   0   0   0   0   4   0   7   0   0   0   4   0   0   0   5   9   0   0   0   0   0   0   0   8   0   0   0   0   0   0  12 95 91 90 88 85 84 83 81 79 70 69 63 
   5   0   0   0   0   3   0   0   0   0   0   0   0   0   0   0   8   0   0   0   0   0   0   0   0   0   0   0   0   0   0   9 92 91 85 84 83 76 73 63 56 
   2   0   0   3   0   0   0   0   0   4   0   0   0   0   0  10   0   0   0   8   0   0   0   0   0   0   0   0   0   0   0   7 93 91 86 85 84 56 50 
   7   0   0   0   0   0   0   0   0   0   0   0   0   0   0   0   0   0   0   0   0   5   0   0   0   6   0   0   4   0   0  11 92 88 85 84 83 82 81 79 73 69 63 
  10   0   0   7   0   0   0   0   0   0   0   5   0   0   0   0   0   0   0   0   0   0   0   0   0   0   0   0  10   7   0   8 96 88 86 81 75 74 73 56 
   3   0   0   0   0   0   0   0   0   2   0   8   0   0   0   0   0   0   0   3   0   0   0   0   0   0   0   0   0   0   0  11 95 88 87 86 85 83 81 79 71 69 67 
   3   0   0   0   0   0   0   0   0   0   6   0   0   0   0   0   0   0   0   0   4   9   0   0   0   7   0   0   5   0   0  10 88 87 85 84 83 81 80 74 71 69 
   8  10   0   0   8   3   0  10   8   0   0   0   0   0   5   8   0   0  10   0   0   0   0   0   0   0   0   0   6   4   0   5 86 85 84 83 56 
   1   0   9   0   0   0   0   0   0   0   0   0   0   0  10   6   0   0   0   0   0   0   0   0   4   0   0   0   0   0   0   5 90 83 82 80 59 
   2   0   0   0   0   0   0   0   0   0   0   0   0   0   0   0   0   0   0   7   0   0   0   7   0   0   4   0   0   3   0   4 89 83 73 56 
   1   0   0   4   0   0   0   0   0   0   0   0   0   0   0   4   0   0   0   7   0   0   0   0   6   0   9   0   0   0   0   4 86 83 81 56 
   6   0   0   0   0   8   0   0   0   5   0   0   0   0   0   0   0   0   0   4   0   0   0   9   0   0   4   0   0   0   0   8 100 98 86 84 81 80 79 72 
   7   0   0   0   0   0   0   0   0   0   6   4   0   8   0   0   0   8   0   0   0   0   0   0   0   0   0   0   0   0   0   7 95 91 87 85 84 81 70 
   7   0   0   0   0   0   0   0   0   0   0   0   0   0   0   4   0   0   0   0   0   0   0   8   0   0   3   0   5  10   0   6 83 82 81 79 73 72 
   9   0   0   0   0   5   0   6   0   0   0   0   0   0   0   0   0   0   0   0   0   0   9   0   0   0   0   0   0   0   0   6 98 89 85 83 79 72 
   9   6   0   0   0   0   0   0   0   0   0   0   0   0   0   7   0   0   5   0   0   0   0   0   0   0  10   0   0   5   0   5 89 88 86 79 70 
   6   0   0   0   0   0   0   0   0   0   0   0   0   0   0   0   0   0   7   7   0   0  10   0   0   0   0   0   0   0   6   5 93 86 85 80 69 
   9   0   0   0   0   4   0   8   0   0   0   0   0   0   0   0   0   0   0   0   3   0   0   0   0   4   0   0   0   0   0   4 92 80 74 69 
   3   0   0   8   0   0   0   0   9  10   0   0   0   0   0   0   0   0   0   0   0   0   0   7   0   0   6   0   0   0   0   5 97 96 94 82 72 
   2   0   0   4   4   0   0   0   0   0   0   0   0   0   0   0   0   0  10   0   0   0   9   0   0   0   0   0   0   0   0   4 82 80 79 69 
  10   5   0   0   0   5   7   0   0   0   0  10   0   0   0   0   0   0   0   0   0   0   5   0   0   0   9   0   0   0   0   4 85 81 79 69 
   4   0   0   0   0   0   0   0   0   0   0   0   0   0   0   0   3   0   0   0   0   0   0   0   0   0   0   0   0   0   0   4 95 82 79 70 
   1   0   0   0   0   0   0   0   0   0   0   0   0   6   0   0   0   0   0   0   9   8   0   0   6   8   0   0   0   8   0   4 87 81 79 72 
   6   0   0   0   0   0   0   7   0   0   0   0   0   4   0   0   0   0   0   0   0   0   0   0   0   0   0   0   0   0   0   4 85 84 81 72 
   2   0   0   0   7   0   0   0   9   0   0   0   0   0   0   0   0   0   0   4   0   0   0   0   0   0   0   0   0   0  10   4 85 79 78 75 
  10   6   0   0   0   0   0   3   0   5   0  10   7   0   0   0   0   0   0   0   0   0   0   0   0   0   0   0   6   7   0   4 97 91 87 85 
   2   0   0   0   8   5   0   0   0   0   0   0   0   0   0   0   0   0   0   0   0   0   0   0   0   0   8   5   0   0   0   3 86 80 72 
   9   0   5   0   0   0   0   0   0   8   0   0   0   0   0   0   0   0   0   5   0   0   0   0   0   0   0   0   0   0   0   3 94 82 72 
  10   0   0   0   0   0   0   0   0   0   6   6   0  10   0   0   0   0   0   0   0   0   5   0   0   0   0   0   0   0   0   3 89 84 72 
  10   4   0   0   0   0   0   0   0   0   0   0   0   0   0   0   0   0   0   0   0   0   0   0   0   0   0   0   0   4   0   2 83 69 
   1   0   0   0   0   0   0   0   0   0   0   0   0   0  10   0   0   5   0   0   0   0   6   0   0   0   0   0   0   0   0   2 82 78 
   3   0   5   0   0   6   0   0   4   0   0   0   0   0   0   0   0   0   0   0   0   0   0   5   0   0   0   0   0   0   0   2 84 78 
   4   0   0   0   0   0   0   0   0   0   0   0   0   0   0   0   0   0   0   0   0   0   0   0   0   0   0   0   0   0   4   1 72 
   3   0   0   0   0   0   0   5   0   0   0   6   0   0   9   0  10   0   0   0   0   0   0   0   0   0   5   0   0   0   0   1 72 
   4   0   0   0   0  10   0   0   0   0   0   0   0   0   0   0   0   0   7   0   0   0   0   0   8   0   0   0   0   6   0   1 72 
   6   0   0   0   0   0   0   0   0   0   0   0   0   0   0   4   0   0   0   0   0   0   0   0   0   0   0   0   0   0   0   1 78 
   9   0   0   0   0   0   0   0   0   0   5   0   0   0   0   0   0   0   0   0   7   6   0   0   0   0   0   5   0   0   0   1 78 
  10   0   0   0   0   0   0   0   0   0   0   0   0   0   0   0   0   0   0   0   0   6   0   7   0   0   0   0   0   0   9   1 79 
   5   4   0   0   0   0   0   0   7   0   0   0   8   0   0   0   0   0   0   0   0   0   0   0   0   0   0   0   7   0   0   1 84 
   4   0   0   0   0   0   0   0   5  10   8   0   0   0   0   5   0   0   0   0   0   0   0   0   0   0   0   0   0   0   0   1 79 
   9   0   0   0   0   0   0   0   0   0   0   0   0   0   0   0   0   6   0   0   4  10   5   0   0   0   0   0   0   0   7   1 79 
   1   0   0   0   0   0   0   0   0  10   0   0   0   0   0   0   0   3   0   0   0   0   0   0   0   0   0   0   0   5   6   1 102
   7   0   0   0   0   0   0   0   0   0   0   4   0   0   0   0   0   0   0   0  10   0   0   0   8   0   0   8   6   0   0   1 102
   1   0   9   0   0   0   0   0   0   0   0   0   0   0   3   0   0   0   0   9   0   0   0   0   0   0   0   6   0   0   0   1 102
  10   0   0  10   0   0   0   6   0   0   0   0   8   0   0   0   0   0   0   0   0   0   0   0   3   0   0   0   0   0   7   1 102
   3   0   0   0   0   0   0   0   0   6   0   0   0   0   0   0   0   0   0   0   0   0   0   0   0   0   0   0   0   0   0   1 102
   7   0   0   0   0   6   0   0   0   0   0   0   0   0   6   0   0   0   0   7   0   6   0   0   5   0   0   0   0   0   0   1 102
   5   5   0   0   0  10   0   0   0   0   0   0   0   0   0   0   0   0   0   6   5   0   3   0   0   0   0   0   0   0   0   1 102
   3   0   0   8   0   0   0   0   0   0   0   0   0   0   0   5   0   0   0  10   0   0   0   0   0   0   4   0   0   0   0   1 102
   7   0   0   0   0   0   0  10   0   0   0   0   0   0   0   0   0   0   0   0   0   0   0   0   0   0   0   0   0   0   0   1 102
  10   0   0   0   0   0   0   0   0   0   0   0   0   0   0   0   0   9   0   0   0   0   0   0   5   0   0   0   0   0   0   1 102
  10   9   0   0   7   0   0   0   0   0   0   0   0   0   0   0   0   0   0   0   0   5   0   0   0   0   0   0   0   0   0   1 102
   8   0   0   0   0   0   0   0   0   6   8  10   0   0   0   4   6   0   0   0   0   0   0   0   6   0   0   0   4   0   0   1 102
   7   8   8   0   0   0   0   0   0   0   0   2   0   0   0   7   0   0   0   0   0   0   0   0   0   0   0   0   0   0   0   1 102
   5   0   0   0   0   0   0   0   0   0   0   0   0   0   0   0   3   0   0   0   0   4   0   0   0   0   0   0   0   7   0   1 102
   2   0   0   0   8   0   0   6   5   0   0   5   0   0   0   0   0   3   0   0   0   0   0   0   0   0   0   0   0   0   3   1 102
   4   0   0   0   0   0   0   0   0   0   0   0   0   0   0   0   0   0   0   0   0   0   0   6   0   7   0   0   0   0   0   1 102
   6   0   0   6   0   0   0   0   0   0   5   0   0   0   0   0   0   0   0   0   0   0   3   0   0   0   0   0   0   0   0   1 102
   3   0   0   0   0   0   0   0   0   0   0   0   0   0   0   0   0   0   6   0   0   0   0   0   0   0   0   0   0   0   5   1 102
   2   6   0   0   0   0   0   0   0   0   0   0   0   0   0   0   5   0   0   0   0   0   0   0   0   5   0   0   0   0   0   1 102
   3   0   0   0   0   0   7   0   0   9   0   0   6   0   0   6   0   6   0   0   0   0   0   7   8   0   0   0   0   0   0   1 102
   7   0   0   0   0   0   0   0   6   0   8   0   0   0   0   0   0   0   0   0   0   0   0   0   0   0   0   3   0   7   0   1 102
   4   0   0   0   0   0   0   0   0   0   0   0   0   0   4   0   0   0   0   0   0   0   0   6   0   0   0   0   6   0   0   1 102
   3   0   0   0   0   0   0   0   0   0   0   0   0   0   0   0   0   0   0   0   0   0   0   0   0   0   0   0   0   6   0   1 102
   4   0   0   0   0   0   0   0   0   0   0   6   0   0   0   0   0   0   0   0   0   0  10   0  10   0   0   0   0   0   0   1 102
   0   0   0   0   0   0   0   0   0   0   0   0   0   0   0   0   0   0   0   0   0   0   0   0   0   0   0   0   0   0   0   0 
